5
470 495 208  287
121 37 239  373
158 315 465  351
68 415 194  31
309 80 147  39
10
417 259 383  332 416
268 398 208  70 267
394 435 265  401 34
231 332 118  154 473
6 491 54  152 380
249 430 268  222 162
149 256 461  278 350
132 271 206  317 253
380 481 369  356 466
255 190 448  374 324
